51
2 48 28 
3 4 99 25 
2 44 35 
3 100 43 106 
3 100 71 7 
4 26 31 14 81 
3 86 29 58 
2 79 20 
2 55 57 
2 52 73 
3 48 39 60 
2 108 106 
3 115 95 27 
3 82 8 6 
2 47 16 
3 38 17 15 
2 86 120 
3 97 72 83 
2 35 65 
3 110 67 22 
3 3 31 119 
3 112 54 61 
2 69 119 
3 17 6 15 
2 97 59 
2 93 38 
2 66 96 
4 57 70 76 58 
2 98 19 
2 87 50 
2 85 89 
3 41 37 92 
3 24 88 5 
2 74 107 
2 73 68 
2 50 110 
2 113 45 
2 30 98 
2 66 65 
2 27 51 
2 19 34 
2 33 24 
3 111 101 90 
2 30 87 
1 63 
1 21 
2 52 99 
2 49 11 
2 80 12 
1 114 
3 56 46 104 
